p cnf 384 979
1 -3 0
2 -3 0
-1 -2 3 0
-1 -5 0
4 -5 0
1 -4 5 0
-1 -6 0
-4 -6 0
1 4 6 0
-1 -8 0
-4 -8 0
7 -8 0
1 4 -7 8 0
-1 -10 0
-4 -10 0
7 -10 0
9 -10 0
1 4 -7 -9 10 0
-1 -11 0
-4 -11 0
7 -11 0
-9 -11 0
1 4 -7 9 11 0
-1 -12 0
-4 -12 0
-7 -12 0
1 4 7 12 0
-1 -14 0
-4 -14 0
-7 -14 0
13 -14 0
1 4 7 -13 14 0
-1 -16 0
-4 -16 0
-7 -16 0
13 -16 0
15 -16 0
1 4 7 -13 -15 16 0
-1 -17 0
-4 -17 0
-7 -17 0
13 -17 0
-15 -17 0
1 4 7 -13 15 17 0
-1 -18 0
-4 -18 0
-7 -18 0
-13 -18 0
1 4 7 13 18 0
-1 -20 0
-4 -20 0
-7 -20 0
-13 -20 0
19 -20 0
1 4 7 13 -19 20 0
-1 -22 0
-4 -22 0
-7 -22 0
-13 -22 0
19 -22 0
21 -22 0
1 4 7 13 -19 -21 22 0
-1 -23 0
-4 -23 0
-7 -23 0
-13 -23 0
-19 -23 0
1 4 7 13 19 23 0
-1 -25 0
-4 -25 0
-7 -25 0
-13 -25 0
-19 -25 0
24 -25 0
1 4 7 13 19 -24 25 0
-1 -27 0
-4 -27 0
-7 -27 0
-13 -27 0
-19 -27 0
24 -27 0
26 -27 0
1 4 7 13 19 -24 -26 27 0
-1 -28 0
-4 -28 0
-7 -28 0
-13 -28 0
-19 -28 0
-24 -28 0
1 4 7 13 19 24 28 0
-1 -30 0
-4 -30 0
-7 -30 0
-13 -30 0
-19 -30 0
-24 -30 0
29 -30 0
1 4 7 13 19 24 -29 30 0
32 0
-106 -114 0
-107 -114 0
-108 -114 0
-109 -114 0
-110 -114 0
-111 -114 0
-112 -114 0
-113 -114 0
106 107 108 109 110 111 112 113 114 0
-105 -115 0
105 115 0
115 116 0
-114 116 0
114 -115 -116 0
116 0
-106 -117 0
-107 -117 0
-108 -117 0
-109 -117 0
-110 -117 0
-111 -117 0
-112 -117 0
-113 -117 0
106 107 108 109 110 111 112 113 117 0
105 -118 0
-105 118 0
118 119 0
-117 119 0
117 -118 -119 0
119 0
-106 -120 0
-107 -120 0
-108 -120 0
-109 -120 0
-110 -120 0
-111 -120 0
-112 -120 0
-113 -120 0
106 107 108 109 110 111 112 113 120 0
-1 -120 -121 0
1 120 -121 0
-1 120 121 0
1 -120 121 0
-121 0
-49 -122 0
-50 -122 0
-51 -122 0
-52 -122 0
-53 -122 0
-54 -122 0
-55 -122 0
-56 -122 0
49 50 51 52 53 54 55 56 122 0
-2 -122 -123 0
2 122 -123 0
-2 122 123 0
2 -122 123 0
-123 0
2 -124 0
115 -124 0
-2 -115 124 0
2 -125 0
118 -125 0
-2 -118 125 0
-126 -134 0
-127 -134 0
-128 -134 0
-129 -134 0
-130 -134 0
-131 -134 0
-132 -134 0
-133 -134 0
126 127 128 129 130 131 132 133 134 0
-105 -135 0
105 135 0
135 136 0
-134 136 0
134 -135 -136 0
136 0
-126 -137 0
-127 -137 0
-128 -137 0
-129 -137 0
-130 -137 0
-131 -137 0
-132 -137 0
-133 -137 0
126 127 128 129 130 131 132 133 137 0
105 -138 0
-105 138 0
138 139 0
-137 139 0
137 -138 -139 0
139 0
126 -140 0
-127 -140 0
-128 -140 0
-129 -140 0
-130 -140 0
-131 -140 0
-132 -140 0
-133 -140 0
-126 127 128 129 130 131 132 133 140 0
-4 -140 -141 0
4 140 -141 0
-4 140 141 0
4 -140 141 0
-141 0
-105 -142 0
105 142 0
105 -143 0
-105 143 0
-144 -152 0
-145 -152 0
-146 -152 0
-147 -152 0
-148 -152 0
-149 -152 0
-150 -152 0
-151 -152 0
144 145 146 147 148 149 150 151 152 0
-105 -153 0
105 153 0
153 154 0
-152 154 0
152 -153 -154 0
154 0
-144 -155 0
-145 -155 0
-146 -155 0
-147 -155 0
-148 -155 0
-149 -155 0
-150 -155 0
-151 -155 0
144 145 146 147 148 149 150 151 155 0
105 -156 0
-105 156 0
156 157 0
-155 157 0
155 -156 -157 0
157 0
-144 -158 0
145 -158 0
-146 -158 0
-147 -158 0
-148 -158 0
-149 -158 0
-150 -158 0
-151 -158 0
144 -145 146 147 148 149 150 151 158 0
-7 -158 -159 0
7 158 -159 0
-7 158 159 0
7 -158 159 0
-159 0
160 -168 0
-161 -168 0
-162 -168 0
-163 -168 0
-164 -168 0
-165 -168 0
-166 -168 0
-167 -168 0
-160 161 162 163 164 165 166 167 168 0
-105 -169 0
105 169 0
-169 -170 0
169 170 0
170 171 0
-168 171 0
168 -170 -171 0
171 0
160 -172 0
-161 -172 0
-162 -172 0
-163 -172 0
-164 -172 0
-165 -172 0
-166 -172 0
-167 -172 0
-160 161 162 163 164 165 166 167 172 0
169 -173 0
-169 173 0
173 174 0
-172 174 0
172 -173 -174 0
174 0
160 -175 0
-161 -175 0
-162 -175 0
-163 -175 0
-164 -175 0
-165 -175 0
-166 -175 0
-167 -175 0
-160 161 162 163 164 165 166 167 175 0
-9 -175 -176 0
9 175 -176 0
-9 175 176 0
9 -175 176 0
-176 0
-105 -177 0
105 177 0
105 -178 0
-105 178 0
9 -177 179 0
9 177 -179 0
-9 -153 179 0
-9 153 -179 0
-9 -180 0
177 -180 0
9 -177 180 0
9 -181 0
153 -181 0
-9 -153 181 0
9 -178 182 0
9 178 -182 0
-9 -156 182 0
-9 156 -182 0
-9 -183 0
178 -183 0
9 -178 183 0
9 -184 0
156 -184 0
-9 -156 184 0
-185 -193 0
-186 -193 0
-187 -193 0
-188 -193 0
-189 -193 0
-190 -193 0
-191 -193 0
-192 -193 0
185 186 187 188 189 190 191 192 193 0
-105 -194 0
105 194 0
194 195 0
-193 195 0
193 -194 -195 0
195 0
-185 -196 0
-186 -196 0
-187 -196 0
-188 -196 0
-189 -196 0
-190 -196 0
-191 -196 0
-192 -196 0
185 186 187 188 189 190 191 192 196 0
105 -197 0
-105 197 0
197 198 0
-196 198 0
196 -197 -198 0
198 0
185 -199 0
186 -199 0
-187 -199 0
-188 -199 0
-189 -199 0
-190 -199 0
-191 -199 0
-192 -199 0
-185 -186 187 188 189 190 191 192 199 0
-13 -199 -200 0
13 199 -200 0
-13 199 200 0
13 -199 200 0
-200 0
-73 -105 -201 0
73 105 -201 0
-73 105 201 0
73 -105 201 0
-201 -202 0
-74 -202 0
-75 -202 0
-76 -202 0
-77 -202 0
-78 -202 0
-79 -202 0
-80 -202 0
74 75 76 77 78 79 80 201 202 0
-15 -202 -203 0
15 202 -203 0
-15 202 203 0
15 -202 203 0
-203 0
-105 -204 0
105 204 0
105 -205 0
-105 205 0
-105 -206 0
105 206 0
105 -207 0
-105 207 0
15 -208 0
194 -208 0
-15 -194 208 0
-15 -209 0
206 -209 0
15 -206 209 0
15 -210 0
197 -210 0
-15 -197 210 0
-15 -211 0
207 -211 0
15 -207 211 0
-212 -220 0
-213 -220 0
-214 -220 0
-215 -220 0
-216 -220 0
-217 -220 0
-218 -220 0
-219 -220 0
212 213 214 215 216 217 218 219 220 0
-105 -221 0
105 221 0
221 222 0
-220 222 0
220 -221 -222 0
222 0
-212 -223 0
-213 -223 0
-214 -223 0
-215 -223 0
-216 -223 0
-217 -223 0
-218 -223 0
-219 -223 0
212 213 214 215 216 217 218 219 223 0
105 -224 0
-105 224 0
224 225 0
-223 225 0
223 -224 -225 0
225 0
-212 -226 0
-213 -226 0
214 -226 0
-215 -226 0
-216 -226 0
-217 -226 0
-218 -226 0
-219 -226 0
212 213 -214 215 216 217 218 219 226 0
-19 -226 -227 0
19 226 -227 0
-19 226 227 0
19 -226 227 0
-227 0
-73 -105 -228 0
73 105 -228 0
-73 105 228 0
73 -105 228 0
-228 -229 0
-74 -229 0
-75 -229 0
-76 -229 0
-77 -229 0
-78 -229 0
-79 -229 0
-80 -229 0
74 75 76 77 78 79 80 228 229 0
-21 -229 -230 0
21 229 -230 0
-21 229 230 0
21 -229 230 0
-230 0
-105 -231 0
105 231 0
105 -232 0
-105 232 0
21 233 0
221 233 0
-21 -221 -233 0
21 234 0
224 234 0
-21 -224 -234 0
21 -235 0
231 -235 0
-21 -231 235 0
21 -236 0
232 -236 0
-21 -232 236 0
-237 -245 0
-238 -245 0
-239 -245 0
-240 -245 0
-241 -245 0
-242 -245 0
-243 -245 0
-244 -245 0
237 238 239 240 241 242 243 244 245 0
-105 -246 0
105 246 0
246 247 0
-245 247 0
245 -246 -247 0
247 0
-237 -248 0
-238 -248 0
-239 -248 0
-240 -248 0
-241 -248 0
-242 -248 0
-243 -248 0
-244 -248 0
237 238 239 240 241 242 243 244 248 0
105 -249 0
-105 249 0
249 250 0
-248 250 0
248 -249 -250 0
250 0
237 -251 0
-238 -251 0
239 -251 0
-240 -251 0
-241 -251 0
-242 -251 0
-243 -251 0
-244 -251 0
-237 238 -239 240 241 242 243 244 251 0
-24 -251 -252 0
24 251 -252 0
-24 251 252 0
24 -251 252 0
-252 0
-26 -122 -253 0
26 122 -253 0
-26 122 253 0
26 -122 253 0
-253 0
26 -254 0
246 -254 0
-26 -246 254 0
26 -255 0
246 -255 0
-26 -246 255 0
26 -256 0
249 -256 0
-26 -249 256 0
26 -257 0
249 -257 0
-26 -249 257 0
-258 -266 0
-259 -266 0
-260 -266 0
-261 -266 0
-262 -266 0
-263 -266 0
-264 -266 0
-265 -266 0
258 259 260 261 262 263 264 265 266 0
-105 -267 0
105 267 0
267 268 0
-266 268 0
266 -267 -268 0
268 0
-258 -269 0
-259 -269 0
-260 -269 0
-261 -269 0
-262 -269 0
-263 -269 0
-264 -269 0
-265 -269 0
258 259 260 261 262 263 264 265 269 0
105 -270 0
-105 270 0
270 271 0
-269 271 0
269 -270 -271 0
271 0
-258 -272 0
259 -272 0
260 -272 0
-261 -272 0
-262 -272 0
-263 -272 0
-264 -272 0
-265 -272 0
258 -259 -260 261 262 263 264 265 272 0
-29 -272 -273 0
29 272 -273 0
-29 272 273 0
29 -272 273 0
-273 0
-105 -274 0
105 274 0
-105 -275 0
105 275 0
105 -276 0
-105 276 0
29 -73 277 0
29 73 -277 0
-29 -274 277 0
-29 274 -277 0
-29 -278 0
74 -278 0
29 -74 278 0
-29 -279 0
75 -279 0
29 -75 279 0
-29 -280 0
76 -280 0
29 -76 280 0
-29 -281 0
77 -281 0
29 -77 281 0
-29 -282 0
78 -282 0
29 -78 282 0
-29 -283 0
79 -283 0
29 -79 283 0
-29 -284 0
80 -284 0
29 -80 284 0
24 -277 285 0
24 277 -285 0
-24 -73 285 0
-24 73 -285 0
24 -278 286 0
24 278 -286 0
-24 -74 286 0
-24 74 -286 0
24 -279 287 0
24 279 -287 0
-24 -75 287 0
-24 75 -287 0
24 -280 288 0
24 280 -288 0
-24 -76 288 0
-24 76 -288 0
24 -281 289 0
24 281 -289 0
-24 -77 289 0
-24 77 -289 0
24 -282 290 0
24 282 -290 0
-24 -78 290 0
-24 78 -290 0
24 -283 291 0
24 283 -291 0
-24 -79 291 0
-24 79 -291 0
24 -284 292 0
24 284 -292 0
-24 -80 292 0
-24 80 -292 0
24 -293 0
254 -293 0
-24 -254 293 0
24 -294 0
255 -294 0
-24 -255 294 0
24 -295 0
256 -295 0
-24 -256 295 0
24 -296 0
257 -296 0
-24 -257 296 0
19 297 0
-233 297 0
-19 233 -297 0
19 298 0
-234 298 0
-19 234 -298 0
19 -285 299 0
19 285 -299 0
-19 -73 299 0
-19 73 -299 0
19 -286 300 0
19 286 -300 0
-19 -74 300 0
-19 74 -300 0
19 -287 301 0
19 287 -301 0
-19 -75 301 0
-19 75 -301 0
19 -288 302 0
19 288 -302 0
-19 -76 302 0
-19 76 -302 0
19 -289 303 0
19 289 -303 0
-19 -77 303 0
-19 77 -303 0
19 -290 304 0
19 290 -304 0
-19 -78 304 0
-19 78 -304 0
19 -291 305 0
19 291 -305 0
-19 -79 305 0
-19 79 -305 0
19 -292 306 0
19 292 -306 0
-19 -80 306 0
-19 80 -306 0
19 -293 307 0
19 293 -307 0
-19 -235 307 0
-19 235 -307 0
-19 -308 0
294 -308 0
19 -294 308 0
19 -295 309 0
19 295 -309 0
-19 -236 309 0
-19 236 -309 0
-19 -310 0
296 -310 0
19 -296 310 0
-13 311 0
-297 311 0
13 297 -311 0
-13 312 0
-298 312 0
13 298 -312 0
13 -299 313 0
13 299 -313 0
-13 -73 313 0
-13 73 -313 0
13 -300 314 0
13 300 -314 0
-13 -74 314 0
-13 74 -314 0
13 -301 315 0
13 301 -315 0
-13 -75 315 0
-13 75 -315 0
13 -302 316 0
13 302 -316 0
-13 -76 316 0
-13 76 -316 0
13 -303 317 0
13 303 -317 0
-13 -77 317 0
-13 77 -317 0
13 -304 318 0
13 304 -318 0
-13 -78 318 0
-13 78 -318 0
13 -305 319 0
13 305 -319 0
-13 -79 319 0
-13 79 -319 0
13 -306 320 0
13 306 -320 0
-13 -80 320 0
-13 80 -320 0
13 -307 321 0
13 307 -321 0
-13 -208 321 0
-13 208 -321 0
13 -308 322 0
13 308 -322 0
-13 -209 322 0
-13 209 -322 0
13 -309 323 0
13 309 -323 0
-13 -210 323 0
-13 210 -323 0
13 -310 324 0
13 310 -324 0
-13 -211 324 0
-13 211 -324 0
-7 325 0
-311 325 0
7 311 -325 0
-7 326 0
-312 326 0
7 312 -326 0
7 -313 327 0
7 313 -327 0
-7 -73 327 0
-7 73 -327 0
7 -314 328 0
7 314 -328 0
-7 -74 328 0
-7 74 -328 0
7 -315 329 0
7 315 -329 0
-7 -75 329 0
-7 75 -329 0
7 -316 330 0
7 316 -330 0
-7 -76 330 0
-7 76 -330 0
7 -317 331 0
7 317 -331 0
-7 -77 331 0
-7 77 -331 0
7 -318 332 0
7 318 -332 0
-7 -78 332 0
-7 78 -332 0
7 -319 333 0
7 319 -333 0
-7 -79 333 0
-7 79 -333 0
7 -320 334 0
7 320 -334 0
-7 -80 334 0
-7 80 -334 0
7 -335 0
179 -335 0
-7 -179 335 0
7 -321 336 0
7 321 -336 0
-7 -180 336 0
-7 180 -336 0
7 -322 337 0
7 322 -337 0
-7 -181 337 0
-7 181 -337 0
7 -338 0
182 -338 0
-7 -182 338 0
7 -323 339 0
7 323 -339 0
-7 -183 339 0
-7 183 -339 0
7 -324 340 0
7 324 -340 0
-7 -184 340 0
-7 184 -340 0
4 -325 341 0
4 325 -341 0
-4 135 341 0
-4 -135 -341 0
4 -326 342 0
4 326 -342 0
-4 138 342 0
-4 -138 -342 0
4 -327 343 0
4 327 -343 0
-4 -73 343 0
-4 73 -343 0
4 -328 344 0
4 328 -344 0
-4 -74 344 0
-4 74 -344 0
4 -329 345 0
4 329 -345 0
-4 -75 345 0
-4 75 -345 0
4 -330 346 0
4 330 -346 0
-4 -76 346 0
-4 76 -346 0
4 -331 347 0
4 331 -347 0
-4 -77 347 0
-4 77 -347 0
4 -332 348 0
4 332 -348 0
-4 -78 348 0
-4 78 -348 0
4 -333 349 0
4 333 -349 0
-4 -79 349 0
-4 79 -349 0
4 -334 350 0
4 334 -350 0
-4 -80 350 0
-4 80 -350 0
-4 -351 0
335 -351 0
4 -335 351 0
4 -336 352 0
4 336 -352 0
-4 -142 352 0
-4 142 -352 0
-4 -353 0
337 -353 0
4 -337 353 0
-4 -354 0
338 -354 0
4 -338 354 0
4 -339 355 0
4 339 -355 0
-4 -143 355 0
-4 143 -355 0
-4 -356 0
340 -356 0
4 -340 356 0
-1 357 0
-341 357 0
1 341 -357 0
-1 358 0
-342 358 0
1 342 -358 0
1 -343 359 0
1 343 -359 0
-1 -73 359 0
-1 73 -359 0
1 -344 360 0
1 344 -360 0
-1 -74 360 0
-1 74 -360 0
1 -345 361 0
1 345 -361 0
-1 -75 361 0
-1 75 -361 0
1 -346 362 0
1 346 -362 0
-1 -76 362 0
-1 76 -362 0
1 -347 363 0
1 347 -363 0
-1 -77 363 0
-1 77 -363 0
1 -348 364 0
1 348 -364 0
-1 -78 364 0
-1 78 -364 0
1 -349 365 0
1 349 -365 0
-1 -79 365 0
-1 79 -365 0
1 -350 366 0
1 350 -366 0
-1 -80 366 0
-1 80 -366 0
1 -351 367 0
1 351 -367 0
-1 -124 367 0
-1 124 -367 0
-1 -368 0
352 -368 0
1 -352 368 0
-1 -369 0
353 -369 0
1 -353 369 0
1 -354 370 0
1 354 -370 0
-1 -125 370 0
-1 125 -370 0
-1 -371 0
355 -371 0
1 -355 371 0
-1 -372 0
356 -372 0
1 -356 372 0
367 -373 0
-368 -373 0
369 -373 0
-367 368 -369 373 0
-31 -373 -374 0
31 373 -374 0
-31 373 374 0
31 -373 374 0
-374 0
370 -375 0
-371 -375 0
372 -375 0
-370 371 -372 375 0
31 -377 0
375 -377 0
-31 -375 377 0
-377 0
-378 -380 -382 0
378 380 -382 0
-378 380 382 0
378 -380 382 0
-379 -381 -383 0
379 381 -383 0
-379 381 383 0
379 -381 383 0
-382 -384 0
-383 -384 0
382 383 384 0
-32 384 0
32 -384 0
c __CPROVER_malloc_is_new_array#1 FALSE
c goto_symex::\guard#1 1
c goto_symex::\guard#2 2
c goto_symex::\guard#3 4
c goto_symex::\guard#4 7
c goto_symex::\guard#5 9
c goto_symex::\guard#6 13
c goto_symex::\guard#7 15
c goto_symex::\guard#8 19
c goto_symex::\guard#9 21
c goto_symex::\guard#10 24
c goto_symex::\guard#11 26
c goto_symex::\guard#12 29
c main::$tmp::::tmp_if_expr$1!0@1#1 376
c goto_symex::\guard#13 31
c main::$tmp::::tmp_if_expr$1!0@1#2 375
c main::$tmp::::tmp_if_expr$1!0@1#3 376
c main::$tmp::::tmp_if_expr$1!0@1#4 FALSE
c main::$tmp::::tmp_if_expr$1!0@1#5 377
c main::1::smain!0@1#41 357 FALSE FALSE FALSE FALSE FALSE FALSE FALSE 358 FALSE FALSE FALSE FALSE FALSE FALSE FALSE 359 360 361 362 363 364 365 366 105 FALSE FALSE FALSE FALSE FALSE FALSE FALSE 367 368 369 FALSE FALSE FALSE FALSE FALSE 370 371 372 FALSE FALSE FALSE FALSE FALSE
c main::1::smain!0@1#40 341 FALSE FALSE FALSE FALSE FALSE FALSE FALSE 342 FALSE FALSE FALSE FALSE FALSE FALSE FALSE 343 344 345 346 347 348 349 350 105 FALSE FALSE FALSE FALSE FALSE FALSE FALSE 351 352 353 FALSE FALSE FALSE FALSE FALSE 354 355 356 FALSE FALSE FALSE FALSE FALSE
c main::1::smain!0@1#39 325 FALSE FALSE FALSE FALSE FALSE FALSE FALSE 326 FALSE FALSE FALSE FALSE FALSE FALSE FALSE 327 328 329 330 331 332 333 334 105 FALSE FALSE FALSE FALSE FALSE FALSE FALSE 335 336 337 FALSE FALSE FALSE FALSE FALSE 338 339 340 FALSE FALSE FALSE FALSE FALSE
c main::1::smain!0@1#38 311 FALSE FALSE FALSE FALSE FALSE FALSE FALSE 312 FALSE FALSE FALSE FALSE FALSE FALSE FALSE 313 314 315 316 317 318 319 320 105 FALSE FALSE FALSE FALSE FALSE FALSE FALSE FALSE 321 322 FALSE FALSE FALSE FALSE FALSE FALSE 323 324 FALSE FALSE FALSE FALSE FALSE
c main::1::smain!0@1#37 297 FALSE FALSE FALSE FALSE FALSE FALSE FALSE 298 FALSE FALSE FALSE FALSE FALSE FALSE FALSE 299 300 301 302 303 304 305 306 105 FALSE FALSE FALSE FALSE FALSE FALSE FALSE FALSE 307 308 FALSE FALSE FALSE FALSE FALSE FALSE 309 310 FALSE FALSE FALSE FALSE FALSE
c main::1::smain!0@1#36 TRUE FALSE FALSE FALSE FALSE FALSE FALSE FALSE TRUE FALSE FALSE FALSE FALSE FALSE FALSE FALSE 285 286 287 288 289 290 291 292 105 FALSE FALSE FALSE FALSE FALSE FALSE FALSE FALSE 293 294 FALSE FALSE FALSE FALSE FALSE FALSE 295 296 FALSE FALSE FALSE FALSE FALSE
c main::1::smain!0@1#35 TRUE FALSE FALSE FALSE FALSE FALSE FALSE FALSE TRUE FALSE FALSE FALSE FALSE FALSE FALSE FALSE 277 278 279 280 281 282 283 284 105 FALSE FALSE FALSE FALSE FALSE FALSE FALSE FALSE FALSE FALSE FALSE FALSE FALSE FALSE FALSE FALSE FALSE FALSE FALSE FALSE FALSE FALSE FALSE
c main::1::smain!0@1#34 TRUE FALSE FALSE FALSE FALSE FALSE FALSE FALSE TRUE FALSE FALSE FALSE FALSE FALSE FALSE FALSE 274 FALSE FALSE FALSE FALSE FALSE FALSE FALSE 105 FALSE FALSE FALSE FALSE FALSE FALSE FALSE FALSE FALSE FALSE FALSE FALSE FALSE FALSE FALSE FALSE FALSE FALSE FALSE FALSE FALSE FALSE FALSE
c main::1::smain!0@1#33 TRUE FALSE FALSE FALSE FALSE FALSE FALSE FALSE TRUE FALSE FALSE FALSE FALSE FALSE FALSE FALSE 274 FALSE FALSE FALSE FALSE FALSE FALSE FALSE 105 FALSE FALSE FALSE FALSE FALSE FALSE FALSE FALSE FALSE FALSE FALSE FALSE FALSE FALSE FALSE FALSE FALSE FALSE FALSE FALSE FALSE FALSE FALSE
c main::1::smain!0@1#32 TRUE FALSE FALSE FALSE FALSE FALSE FALSE FALSE TRUE FALSE FALSE FALSE FALSE FALSE FALSE FALSE 73 74 75 76 77 78 79 80 105 FALSE FALSE FALSE FALSE FALSE FALSE FALSE FALSE FALSE FALSE FALSE FALSE FALSE FALSE FALSE FALSE FALSE FALSE FALSE FALSE FALSE FALSE FALSE
c main::1::smain!0@1#30 TRUE FALSE FALSE FALSE FALSE FALSE FALSE FALSE TRUE FALSE FALSE FALSE FALSE FALSE FALSE FALSE 73 74 75 76 77 78 79 80 105 FALSE FALSE FALSE FALSE FALSE FALSE FALSE FALSE 254 255 FALSE FALSE FALSE FALSE FALSE FALSE 256 257 FALSE FALSE FALSE FALSE FALSE
c main::1::smain!0@1#25 -221 FALSE FALSE FALSE FALSE FALSE FALSE FALSE -224 FALSE FALSE FALSE FALSE FALSE FALSE FALSE 73 74 75 76 77 78 79 80 105 FALSE FALSE FALSE FALSE FALSE FALSE FALSE FALSE FALSE FALSE FALSE FALSE FALSE FALSE FALSE FALSE FALSE FALSE FALSE FALSE FALSE FALSE FALSE
c main::1::select!0@1#1 41 42 43 44 45 46 47 48
c main::1::smain!0@1#9 TRUE FALSE FALSE FALSE FALSE FALSE FALSE FALSE TRUE FALSE FALSE FALSE FALSE FALSE FALSE FALSE 73 74 75 76 77 78 79 80 105 FALSE FALSE FALSE FALSE FALSE FALSE FALSE 124 FALSE FALSE FALSE FALSE FALSE FALSE FALSE 125 FALSE FALSE FALSE FALSE FALSE FALSE FALSE
c initial::clock!0@1#1 33 34 35 36 37 38 39 40
c initial::smain!0@1#1 FALSE FALSE FALSE FALSE FALSE FALSE FALSE FALSE FALSE FALSE FALSE FALSE FALSE FALSE FALSE FALSE FALSE FALSE FALSE FALSE FALSE FALSE FALSE FALSE FALSE FALSE FALSE FALSE FALSE FALSE FALSE FALSE FALSE FALSE FALSE FALSE FALSE FALSE FALSE FALSE FALSE FALSE FALSE FALSE FALSE FALSE FALSE FALSE FALSE FALSE FALSE FALSE FALSE FALSE FALSE FALSE FALSE TRUE FALSE FALSE FALSE FALSE FALSE FALSE
c main::1::smain!0@1#15 TRUE FALSE FALSE FALSE FALSE FALSE FALSE FALSE TRUE FALSE FALSE FALSE FALSE FALSE FALSE FALSE 73 74 75 76 77 78 79 80 105 FALSE FALSE FALSE FALSE FALSE FALSE FALSE FALSE FALSE FALSE FALSE FALSE FALSE FALSE FALSE FALSE FALSE FALSE FALSE FALSE FALSE FALSE FALSE
c main::1::smain!0@1#31 TRUE FALSE FALSE FALSE FALSE FALSE FALSE FALSE TRUE FALSE FALSE FALSE FALSE FALSE FALSE FALSE 73 74 75 76 77 78 79 80 105 FALSE FALSE FALSE FALSE FALSE FALSE FALSE FALSE FALSE FALSE FALSE FALSE FALSE FALSE FALSE FALSE FALSE FALSE FALSE FALSE FALSE FALSE FALSE
c __CPROVER_thread_id!0#1 FALSE FALSE FALSE FALSE FALSE FALSE FALSE FALSE FALSE FALSE FALSE FALSE FALSE FALSE FALSE FALSE FALSE FALSE FALSE FALSE FALSE FALSE FALSE FALSE FALSE FALSE FALSE FALSE FALSE FALSE FALSE FALSE FALSE FALSE FALSE FALSE FALSE FALSE FALSE FALSE FALSE FALSE FALSE FALSE FALSE FALSE FALSE FALSE FALSE FALSE FALSE FALSE FALSE FALSE FALSE FALSE FALSE FALSE FALSE FALSE FALSE FALSE FALSE FALSE
c main::1::smain!0@1#29 TRUE FALSE FALSE FALSE FALSE FALSE FALSE FALSE TRUE FALSE FALSE FALSE FALSE FALSE FALSE FALSE 73 74 75 76 77 78 79 80 105 FALSE FALSE FALSE FALSE FALSE FALSE FALSE FALSE 246 246 FALSE FALSE FALSE FALSE FALSE FALSE 249 249 FALSE FALSE FALSE FALSE FALSE
c __CPROVER_rounding_mode!0#1 FALSE FALSE FALSE FALSE FALSE FALSE FALSE FALSE FALSE FALSE FALSE FALSE FALSE FALSE FALSE FALSE FALSE FALSE FALSE FALSE FALSE FALSE FALSE FALSE FALSE FALSE FALSE FALSE FALSE FALSE FALSE FALSE
c __CPROVER_pipe_count#1 FALSE FALSE FALSE FALSE FALSE FALSE FALSE FALSE FALSE FALSE FALSE FALSE FALSE FALSE FALSE FALSE FALSE FALSE FALSE FALSE FALSE FALSE FALSE FALSE FALSE FALSE FALSE FALSE FALSE FALSE FALSE FALSE
c __CPROVER_next_thread_id#1 FALSE FALSE FALSE FALSE FALSE FALSE FALSE FALSE FALSE FALSE FALSE FALSE FALSE FALSE FALSE FALSE FALSE FALSE FALSE FALSE FALSE FALSE FALSE FALSE FALSE FALSE FALSE FALSE FALSE FALSE FALSE FALSE FALSE FALSE FALSE FALSE FALSE FALSE FALSE FALSE FALSE FALSE FALSE FALSE FALSE FALSE FALSE FALSE FALSE FALSE FALSE FALSE FALSE FALSE FALSE FALSE FALSE FALSE FALSE FALSE FALSE FALSE FALSE FALSE
c main::1::smain!0@1#6 TRUE FALSE FALSE FALSE FALSE FALSE FALSE FALSE TRUE FALSE FALSE FALSE FALSE FALSE FALSE FALSE 73 74 75 76 77 78 79 80 41 42 43 44 45 46 47 48 FALSE FALSE FALSE FALSE FALSE FALSE FALSE FALSE FALSE FALSE FALSE FALSE FALSE FALSE FALSE FALSE
c main::1::smain!0@1#28 TRUE FALSE FALSE FALSE FALSE FALSE FALSE FALSE TRUE FALSE FALSE FALSE FALSE FALSE FALSE FALSE 73 74 75 76 77 78 79 80 105 FALSE FALSE FALSE FALSE FALSE FALSE FALSE FALSE FALSE FALSE FALSE FALSE FALSE FALSE FALSE FALSE FALSE FALSE FALSE FALSE FALSE FALSE FALSE
c __CPROVER_memory_leak#1 FALSE FALSE FALSE FALSE FALSE FALSE FALSE FALSE FALSE FALSE FALSE FALSE FALSE FALSE FALSE FALSE FALSE FALSE FALSE FALSE FALSE FALSE FALSE FALSE FALSE FALSE FALSE FALSE FALSE FALSE FALSE FALSE FALSE FALSE FALSE FALSE FALSE FALSE FALSE FALSE FALSE FALSE FALSE FALSE FALSE FALSE FALSE FALSE FALSE FALSE FALSE FALSE FALSE FALSE FALSE FALSE FALSE FALSE FALSE FALSE FALSE FALSE FALSE FALSE
c main::1::smain!0@1#5 TRUE FALSE FALSE FALSE FALSE FALSE FALSE FALSE TRUE FALSE FALSE FALSE FALSE FALSE FALSE FALSE 73 74 75 76 77 78 79 80 81 82 83 84 85 86 87 88 FALSE FALSE FALSE FALSE FALSE FALSE FALSE FALSE FALSE FALSE FALSE FALSE FALSE FALSE FALSE FALSE
c main::1::smain!0@1#27 233 FALSE FALSE FALSE FALSE FALSE FALSE FALSE 234 FALSE FALSE FALSE FALSE FALSE FALSE FALSE 73 74 75 76 77 78 79 80 105 FALSE FALSE FALSE FALSE FALSE FALSE FALSE FALSE 235 FALSE FALSE FALSE FALSE FALSE FALSE FALSE 236 FALSE FALSE FALSE FALSE FALSE FALSE
c __CPROVER_malloc_size#1 FALSE FALSE FALSE FALSE FALSE FALSE FALSE FALSE FALSE FALSE FALSE FALSE FALSE FALSE FALSE FALSE FALSE FALSE FALSE FALSE FALSE FALSE FALSE FALSE FALSE FALSE FALSE FALSE FALSE FALSE FALSE FALSE FALSE FALSE FALSE FALSE FALSE FALSE FALSE FALSE FALSE FALSE FALSE FALSE FALSE FALSE FALSE FALSE FALSE FALSE FALSE FALSE FALSE FALSE FALSE FALSE FALSE FALSE FALSE FALSE FALSE FALSE FALSE FALSE
c main::1::smain!0@1#4 TRUE FALSE FALSE FALSE FALSE FALSE FALSE FALSE 65 66 67 68 69 70 71 72 73 74 75 76 77 78 79 80 81 82 83 84 85 86 87 88 FALSE FALSE FALSE FALSE FALSE FALSE FALSE FALSE FALSE FALSE FALSE FALSE FALSE FALSE FALSE FALSE
c main::1::smain!0@1#21 TRUE FALSE FALSE FALSE FALSE FALSE FALSE FALSE TRUE FALSE FALSE FALSE FALSE FALSE FALSE FALSE 73 74 75 76 77 78 79 80 105 FALSE FALSE FALSE FALSE FALSE FALSE FALSE FALSE FALSE FALSE FALSE FALSE FALSE FALSE FALSE FALSE FALSE FALSE FALSE FALSE FALSE FALSE FALSE
c L3#1 TRUE TRUE FALSE FALSE FALSE FALSE FALSE FALSE FALSE FALSE FALSE FALSE FALSE FALSE FALSE FALSE FALSE FALSE FALSE FALSE FALSE FALSE FALSE FALSE FALSE FALSE FALSE FALSE FALSE FALSE FALSE FALSE
c main::1::smain!0@1#20 TRUE FALSE FALSE FALSE FALSE FALSE FALSE FALSE TRUE FALSE FALSE FALSE FALSE FALSE FALSE FALSE 73 74 75 76 77 78 79 80 105 FALSE FALSE FALSE FALSE FALSE FALSE FALSE FALSE FALSE FALSE FALSE FALSE FALSE FALSE FALSE FALSE FALSE FALSE FALSE FALSE FALSE FALSE FALSE
c L2#1 FALSE TRUE FALSE FALSE FALSE FALSE FALSE FALSE FALSE FALSE FALSE FALSE FALSE FALSE FALSE FALSE FALSE FALSE FALSE FALSE FALSE FALSE FALSE FALSE FALSE FALSE FALSE FALSE FALSE FALSE FALSE FALSE
c main::1::smain!0@1#19 TRUE FALSE FALSE FALSE FALSE FALSE FALSE FALSE TRUE FALSE FALSE FALSE FALSE FALSE FALSE FALSE 73 74 75 76 77 78 79 80 105 FALSE FALSE FALSE FALSE FALSE FALSE FALSE FALSE 194 FALSE FALSE FALSE FALSE FALSE FALSE FALSE 197 FALSE FALSE FALSE FALSE FALSE FALSE
c L1#1 TRUE FALSE FALSE FALSE FALSE FALSE FALSE FALSE FALSE FALSE FALSE FALSE FALSE FALSE FALSE FALSE FALSE FALSE FALSE FALSE FALSE FALSE FALSE FALSE FALSE FALSE FALSE FALSE FALSE FALSE FALSE FALSE
c main::1::smain!0@1#2 57 58 59 60 61 62 63 64 65 66 67 68 69 70 71 72 73 74 75 76 77 78 79 80 81 82 83 84 85 86 87 88 FALSE FALSE FALSE FALSE FALSE FALSE FALSE FALSE 97 98 99 100 101 102 103 104
c main::1::smain!0@1#18 TRUE FALSE FALSE FALSE FALSE FALSE FALSE FALSE TRUE FALSE FALSE FALSE FALSE FALSE FALSE FALSE 73 74 75 76 77 78 79 80 105 FALSE FALSE FALSE FALSE FALSE FALSE FALSE FALSE FALSE FALSE FALSE FALSE FALSE FALSE FALSE FALSE FALSE FALSE FALSE FALSE FALSE FALSE FALSE
c initial::select!0@1#1 41 42 43 44 45 46 47 48
c main::1::smain!0@1#16 TRUE FALSE FALSE FALSE FALSE FALSE FALSE FALSE TRUE FALSE FALSE FALSE FALSE FALSE FALSE FALSE 73 74 75 76 77 78 79 80 105 FALSE FALSE FALSE FALSE FALSE FALSE FALSE 177 177 FALSE FALSE FALSE FALSE FALSE FALSE 178 178 FALSE FALSE FALSE FALSE FALSE FALSE
c L0#1 FALSE FALSE FALSE FALSE FALSE FALSE FALSE FALSE FALSE FALSE FALSE FALSE FALSE FALSE FALSE FALSE FALSE FALSE FALSE FALSE FALSE FALSE FALSE FALSE FALSE FALSE FALSE FALSE FALSE FALSE FALSE FALSE
c initial::pause!0@1#1 49 50 51 52 53 54 55 56
c main::1::smain!0@1#17 TRUE FALSE FALSE FALSE FALSE FALSE FALSE FALSE TRUE FALSE FALSE FALSE FALSE FALSE FALSE FALSE 73 74 75 76 77 78 79 80 105 FALSE FALSE FALSE FALSE FALSE FALSE FALSE 179 180 181 FALSE FALSE FALSE FALSE FALSE 182 183 184 FALSE FALSE FALSE FALSE FALSE
c main::1::pause!0@1#1 49 50 51 52 53 54 55 56
c main::1::smain!0@1#10 TRUE FALSE FALSE FALSE FALSE FALSE FALSE FALSE TRUE FALSE FALSE FALSE FALSE FALSE FALSE FALSE 73 74 75 76 77 78 79 80 105 FALSE FALSE FALSE FALSE FALSE FALSE FALSE FALSE FALSE FALSE FALSE FALSE FALSE FALSE FALSE FALSE FALSE FALSE FALSE FALSE FALSE FALSE FALSE
c main::1::smain!0@1#26 -221 FALSE FALSE FALSE FALSE FALSE FALSE FALSE -224 FALSE FALSE FALSE FALSE FALSE FALSE FALSE 73 74 75 76 77 78 79 80 105 FALSE FALSE FALSE FALSE FALSE FALSE FALSE FALSE 231 FALSE FALSE FALSE FALSE FALSE FALSE FALSE 232 FALSE FALSE FALSE FALSE FALSE FALSE
c __CPROVER_malloc_object#1 FALSE FALSE FALSE FALSE FALSE FALSE FALSE FALSE FALSE FALSE FALSE FALSE FALSE FALSE FALSE FALSE FALSE FALSE FALSE FALSE FALSE FALSE FALSE FALSE FALSE FALSE FALSE FALSE FALSE FALSE FALSE FALSE FALSE FALSE FALSE FALSE FALSE FALSE FALSE FALSE FALSE FALSE FALSE FALSE FALSE FALSE FALSE FALSE FALSE FALSE FALSE FALSE FALSE FALSE FALSE FALSE FALSE FALSE FALSE FALSE FALSE FALSE FALSE FALSE
c L4#1 FALSE FALSE TRUE FALSE FALSE FALSE FALSE FALSE FALSE FALSE FALSE FALSE FALSE FALSE FALSE FALSE FALSE FALSE FALSE FALSE FALSE FALSE FALSE FALSE FALSE FALSE FALSE FALSE FALSE FALSE FALSE FALSE
c main::1::smain!0@1#22 TRUE FALSE FALSE FALSE FALSE FALSE FALSE FALSE TRUE FALSE FALSE FALSE FALSE FALSE FALSE FALSE 73 74 75 76 77 78 79 80 105 FALSE FALSE FALSE FALSE FALSE FALSE FALSE FALSE FALSE 206 FALSE FALSE FALSE FALSE FALSE FALSE FALSE 207 FALSE FALSE FALSE FALSE FALSE
c L5#1 TRUE FALSE TRUE FALSE FALSE FALSE FALSE FALSE FALSE FALSE FALSE FALSE FALSE FALSE FALSE FALSE FALSE FALSE FALSE FALSE FALSE FALSE FALSE FALSE FALSE FALSE FALSE FALSE FALSE FALSE FALSE FALSE
c main::1::smain!0@1#23 TRUE FALSE FALSE FALSE FALSE FALSE FALSE FALSE TRUE FALSE FALSE FALSE FALSE FALSE FALSE FALSE 73 74 75 76 77 78 79 80 105 FALSE FALSE FALSE FALSE FALSE FALSE FALSE FALSE 208 209 FALSE FALSE FALSE FALSE FALSE FALSE 210 211 FALSE FALSE FALSE FALSE FALSE
c L6#1 FALSE TRUE TRUE FALSE FALSE FALSE FALSE FALSE FALSE FALSE FALSE FALSE FALSE FALSE FALSE FALSE FALSE FALSE FALSE FALSE FALSE FALSE FALSE FALSE FALSE FALSE FALSE FALSE FALSE FALSE FALSE FALSE
c main::1::smain!0@1#24 TRUE FALSE FALSE FALSE FALSE FALSE FALSE FALSE TRUE FALSE FALSE FALSE FALSE FALSE FALSE FALSE 73 74 75 76 77 78 79 80 105 FALSE FALSE FALSE FALSE FALSE FALSE FALSE FALSE FALSE FALSE FALSE FALSE FALSE FALSE FALSE FALSE FALSE FALSE FALSE FALSE FALSE FALSE FALSE
c __CPROVER_dead_object#1 FALSE FALSE FALSE FALSE FALSE FALSE FALSE FALSE FALSE FALSE FALSE FALSE FALSE FALSE FALSE FALSE FALSE FALSE FALSE FALSE FALSE FALSE FALSE FALSE FALSE FALSE FALSE FALSE FALSE FALSE FALSE FALSE FALSE FALSE FALSE FALSE FALSE FALSE FALSE FALSE FALSE FALSE FALSE FALSE FALSE FALSE FALSE FALSE FALSE FALSE FALSE FALSE FALSE FALSE FALSE FALSE FALSE FALSE FALSE FALSE FALSE FALSE FALSE FALSE
c main::1::clock!0@1#1 33 34 35 36 37 38 39 40
c main::1::smain!0@1#8 TRUE FALSE FALSE FALSE FALSE FALSE FALSE FALSE TRUE FALSE FALSE FALSE FALSE FALSE FALSE FALSE 73 74 75 76 77 78 79 80 105 FALSE FALSE FALSE FALSE FALSE FALSE FALSE 115 FALSE FALSE FALSE FALSE FALSE FALSE FALSE 118 FALSE FALSE FALSE FALSE FALSE FALSE FALSE
c __CPROVER_deallocated#1 FALSE FALSE FALSE FALSE FALSE FALSE FALSE FALSE FALSE FALSE FALSE FALSE FALSE FALSE FALSE FALSE FALSE FALSE FALSE FALSE FALSE FALSE FALSE FALSE FALSE FALSE FALSE FALSE FALSE FALSE FALSE FALSE FALSE FALSE FALSE FALSE FALSE FALSE FALSE FALSE FALSE FALSE FALSE FALSE FALSE FALSE FALSE FALSE FALSE FALSE FALSE FALSE FALSE FALSE FALSE FALSE FALSE FALSE FALSE FALSE FALSE FALSE FALSE FALSE
c main::1::smain!0@1#1 57 58 59 60 61 62 63 64 65 66 67 68 69 70 71 72 73 74 75 76 77 78 79 80 81 82 83 84 85 86 87 88 89 90 91 92 93 94 95 96 97 98 99 100 101 102 103 104
c main::1::smain!0@1#3 57 58 59 60 61 62 63 64 65 66 67 68 69 70 71 72 73 74 75 76 77 78 79 80 81 82 83 84 85 86 87 88 FALSE FALSE FALSE FALSE FALSE FALSE FALSE FALSE FALSE FALSE FALSE FALSE FALSE FALSE FALSE FALSE
c main::1::select!0@1#2 105 FALSE FALSE FALSE FALSE FALSE FALSE FALSE
c dekker::smain!0@1#1 FALSE FALSE FALSE FALSE FALSE FALSE FALSE FALSE FALSE FALSE FALSE FALSE FALSE FALSE FALSE FALSE FALSE FALSE FALSE FALSE FALSE FALSE FALSE FALSE FALSE FALSE FALSE FALSE FALSE FALSE FALSE FALSE FALSE FALSE FALSE FALSE FALSE FALSE FALSE FALSE FALSE FALSE FALSE FALSE FALSE FALSE FALSE FALSE FALSE FALSE FALSE FALSE FALSE FALSE FALSE FALSE FALSE TRUE FALSE FALSE FALSE FALSE FALSE FALSE
c dekker::clock!0@1#1 33 34 35 36 37 38 39 40
c dekker::select!0@1#1 105 FALSE FALSE FALSE FALSE FALSE FALSE FALSE
c dekker::pause!0@1#1 49 50 51 52 53 54 55 56
c main::1::smain!0@1#7 TRUE FALSE FALSE FALSE FALSE FALSE FALSE FALSE TRUE FALSE FALSE FALSE FALSE FALSE FALSE FALSE 73 74 75 76 77 78 79 80 105 FALSE FALSE FALSE FALSE FALSE FALSE FALSE FALSE FALSE FALSE FALSE FALSE FALSE FALSE FALSE FALSE FALSE FALSE FALSE FALSE FALSE FALSE FALSE
c main::1::smain!0@1#11 -135 FALSE FALSE FALSE FALSE FALSE FALSE FALSE -138 FALSE FALSE FALSE FALSE FALSE FALSE FALSE 73 74 75 76 77 78 79 80 105 FALSE FALSE FALSE FALSE FALSE FALSE FALSE FALSE FALSE FALSE FALSE FALSE FALSE FALSE FALSE FALSE FALSE FALSE FALSE FALSE FALSE FALSE FALSE
c main::1::smain!0@1#12 -135 FALSE FALSE FALSE FALSE FALSE FALSE FALSE -138 FALSE FALSE FALSE FALSE FALSE FALSE FALSE 73 74 75 76 77 78 79 80 105 FALSE FALSE FALSE FALSE FALSE FALSE FALSE FALSE 142 FALSE FALSE FALSE FALSE FALSE FALSE FALSE 143 FALSE FALSE FALSE FALSE FALSE FALSE
c main::1::smain!0@1#13 TRUE FALSE FALSE FALSE FALSE FALSE FALSE FALSE TRUE FALSE FALSE FALSE FALSE FALSE FALSE FALSE 73 74 75 76 77 78 79 80 105 FALSE FALSE FALSE FALSE FALSE FALSE FALSE FALSE FALSE FALSE FALSE FALSE FALSE FALSE FALSE FALSE FALSE FALSE FALSE FALSE FALSE FALSE FALSE
c main::1::smain!0@1#14 TRUE FALSE FALSE FALSE FALSE FALSE FALSE FALSE TRUE FALSE FALSE FALSE FALSE FALSE FALSE FALSE 73 74 75 76 77 78 79 80 105 FALSE FALSE FALSE FALSE FALSE FALSE FALSE 153 FALSE 153 FALSE FALSE FALSE FALSE FALSE 156 FALSE 156 FALSE FALSE FALSE FALSE FALSE
